db/inputs/2813415423293074553840243210722473.smt2
(set-logic QF_FP)
(declare-const x0 (_ FloatingPoint 8 24))
(declare-const x1 (_ FloatingPoint 8 24))
(declare-const x2 (_ FloatingPoint 8 24))
(declare-const x3 (_ FloatingPoint 8 24))
(declare-const x4 (_ FloatingPoint 8 24))
(declare-const x5 (_ FloatingPoint 8 24))
(assert (fp.gt (fp.mul RNE (fp.add RNE x4 x4) (fp.mul RNE x0 x4)) (fp.sub RNE (fp.mul RNE x4 x5) (fp.sub RNE x5 x0))))
(assert (fp.lt (fp.add RNE (fp.add RNE x3 x0) (fp.div RNE x3 x0)) (fp.div RNE (fp.sub RNE x2 x2) (fp.div RNE x2 x4))))
(check-sat)
