db/data/2813415423293074553840243210722473.z3.out
sat
-------------------
18.309312584
